(set-info :smt-lib-version 2.6)
(set-logic QF_S)
(set-info :source |
Generated by: Hung-En Wang, Tzung-Lin Tsai, Chun-Han Lin, Fang Yu, and Jie-Hong R. Jiang
Generated on: 2019-02-28
Generator: Stranger
Application: Security analysis of string manipulating web applications
Target solver: CVC4, Norn, Z3-str2
Publication:
Hung-En Wang, Tzung-Lin Tsai, Chun-Han Lin, Fang Yu, Jie-Hong R. Jiang:
String Analysis via Automata Manipulation with Logic Circuit Representation. CAV (1) 2016: 241-260.
|)
(set-info :license "https://creativecommons.org/licenses/by/4.0/")
(set-info :category "industrial")
(set-info :status unknown)

(declare-fun sigmaStar_0 () String)
(declare-fun sigmaStar_1 () String)
(declare-fun sigmaStar_2 () String)
(declare-fun sigmaStar_3 () String)
(declare-fun sigmaStar_4 () String)
(declare-fun literal_26 () String)
(declare-fun x_29 () String)
(declare-fun literal_22 () String)
(declare-fun literal_25 () String)
(declare-fun x_31 () String)
(declare-fun literal_32 () String)
(declare-fun x_34 () String)
(declare-fun literal_48 () String)
(declare-fun x_51 () String)
(declare-fun literal_50 () String)
(declare-fun literal_49 () String)
(declare-fun x_52 () String)
(declare-fun literal_53 () String)
(declare-fun x_54 () String)
(assert (= literal_26 "\u{53}\u{45}\u{4c}\u{45}\u{43}\u{54}\u{20}\u{43}\u{4f}\u{55}\u{4e}\u{54}\u{28}\u{2a}\u{29}\u{0d}\u{0a}\u{20}\u{20}\u{20}\u{20}\u{20}\u{20}\u{20}\u{20}\u{20}\u{20}\u{20}\u{20}\u{20}\u{20}\u{20}\u{20}\u{20}\u{20}\u{20}\u{20}\u{20}\u{20}\u{20}\u{20}\u{20}\u{20}\u{20}\u{20}\u{20}\u{20}\u{20}\u{20}\u{20}\u{20}\u{20}\u{20}\u{20}\u{20}\u{20}\u{20}\u{20}\u{20}\u{20}\u{20}\u{20}\u{20}\u{20}\u{20}\u{20}\u{46}\u{52}\u{4f}\u{4d}\u{20}\u{6a}\u{6f}\u{75}\u{72}\u{6e}\u{61}\u{6c}\u{5f}\u{65}\u{6e}\u{74}\u{72}\u{69}\u{65}\u{73}\u{20}\u{6a}\u{2c}\u{0d}\u{0a}\u{20}\u{20}\u{20}\u{20}\u{20}\u{20}\u{20}\u{20}\u{20}\u{20}\u{20}\u{20}\u{20}\u{20}\u{20}\u{20}\u{20}\u{20}\u{20}\u{20}\u{20}\u{20}\u{20}\u{20}\u{20}\u{20}\u{20}\u{20}\u{20}\u{20}\u{20}\u{20}\u{20}\u{20}\u{20}\u{20}\u{20}\u{20}\u{20}\u{20}\u{20}\u{20}\u{20}\u{20}\u{20}\u{20}\u{20}\u{20}\u{20}\u{20}\u{20}\u{20}\u{20}\u{20}\u{75}\u{73}\u{65}\u{72}\u{20}\u{75}\u{2c}\u{20}\u{0d}\u{0a}\u{20}\u{20}\u{20}\u{20}\u{20}\u{20}\u{20}\u{20}\u{20}\u{20}\u{20}\u{20}\u{20}\u{20}\u{20}\u{20}\u{20}\u{20}\u{20}\u{20}\u{20}\u{20}\u{20}\u{20}\u{20}\u{20}\u{20}\u{20}\u{20}\u{20}\u{20}\u{20}\u{20}\u{20}\u{20}\u{20}\u{20}\u{20}\u{20}\u{20}\u{20}\u{20}\u{20}\u{20}\u{20}\u{20}\u{20}\u{20}\u{20}\u{20}\u{20}\u{20}\u{20}\u{20}\u{75}\u{73}\u{65}\u{72}\u{5f}\u{73}\u{74}\u{75}\u{64}\u{65}\u{6e}\u{74}\u{73}\u{20}\u{73}\u{0d}\u{0a}\u{20}\u{20}\u{20}\u{20}\u{20}\u{20}\u{20}\u{20}\u{20}\u{20}\u{20}\u{20}\u{20}\u{20}\u{20}\u{20}\u{20}\u{20}\u{20}\u{20}\u{20}\u{20}\u{20}\u{20}\u{20}\u{20}\u{20}\u{20}\u{20}\u{20}\u{20}\u{20}\u{20}\u{20}\u{20}\u{20}\u{20}\u{20}\u{20}\u{20}\u{20}\u{20}\u{20}\u{20}\u{20}\u{20}\u{20}\u{20}\u{57}\u{48}\u{45}\u{52}\u{45}\u{20}\u{6a}\u{2e}\u{75}\u{73}\u{65}\u{72}\u{69}\u{64}\u{20}\u{3d}\u{20}\u{75}\u{2e}\u{69}\u{64}\u{0d}\u{0a}\u{20}\u{20}\u{20}\u{20}\u{20}\u{20}\u{20}\u{20}\u{20}\u{20}\u{20}\u{20}\u{20}\u{20}\u{20}\u{20}\u{20}\u{20}\u{20}\u{20}\u{20}\u{20}\u{20}\u{20}\u{20}\u{20}\u{20}\u{20}\u{20}\u{20}\u{20}\u{20}\u{20}\u{20}\u{20}\u{20}\u{20}\u{20}\u{20}\u{20}\u{20}\u{20}\u{20}\u{20}\u{20}\u{20}\u{20}\u{20}\u{20}\u{20}\u{41}\u{4e}\u{44}\u{20}\u{73}\u{2e}\u{75}\u{73}\u{65}\u{72}\u{69}\u{64}\u{20}\u{3d}\u{20}\u{75}\u{2e}\u{69}\u{64}\u{20}\u{0d}\u{0a}\u{20}\u{20}\u{20}\u{20}\u{20}\u{20}\u{20}\u{20}\u{20}\u{20}\u{20}\u{20}\u{20}\u{20}\u{20}\u{20}\u{20}\u{20}\u{20}\u{20}\u{20}\u{20}\u{20}\u{20}\u{20}\u{20}\u{20}\u{20}\u{20}\u{20}\u{20}\u{20}\u{20}\u{20}\u{20}\u{20}\u{20}\u{20}\u{20}\u{20}\u{20}\u{20}\u{20}\u{20}\u{20}\u{20}\u{20}\u{20}\u{20}\u{20}\u{41}\u{4e}\u{44}\u{20}"))
(assert (= literal_22 "\u{73}\u{2e}\u{63}\u{6f}\u{75}\u{72}\u{73}\u{65}\u{20}\u{3d}\u{20}\u{27}\u{27}\u{20}\u{41}\u{4e}\u{44}"))
(assert (= literal_25 ""))
(assert (or (= x_29 literal_22) (= x_29 literal_25)))
(assert (= x_31 (str.++ literal_26 x_29)))
(assert (= literal_32 "\u{20}\u{6a}\u{2e}\u{6a}\u{6f}\u{75}\u{72}\u{6e}\u{61}\u{6c}\u{20}\u{3d}\u{20}"))
(assert (= x_34 (str.++ x_31 literal_32)))
(assert (= literal_48 "\u{3c}\u{68}\u{33}\u{3e}"))
(assert (= literal_50 ""))
(assert (= literal_49 "\u{26}\u{6e}\u{62}\u{73}\u{70}\u{3b}\u{28}\u{3c}\u{61}\u{20}\u{68}\u{72}\u{65}\u{66}\u{3d}\u{5c}\u{22}\u{72}\u{65}\u{70}\u{6f}\u{72}\u{74}\u{2e}\u{70}\u{68}\u{70}\u{3f}\u{69}\u{64}\u{3d}\u{5c}\u{22}\u{3e}\u{76}\u{69}\u{65}\u{77}\u{61}\u{6c}\u{6c}\u{65}\u{6e}\u{74}\u{72}\u{69}\u{65}\u{73}\u{3c}\u{2f}\u{61}\u{3e}\u{29}"))
(assert (or (= x_51 literal_50) (= x_51 literal_49)))
(assert (= x_52 (str.++ literal_48 x_51)))
(assert (= literal_53 "\u{3c}\u{2f}\u{68}\u{33}\u{3e}"))
(assert (= x_54 (str.++ x_52 literal_53)))
(assert (str.in_re x_54 (re.++ (re.* re.allchar) (re.++ (str.to_re "\u{5c}\u{3c}\u{53}\u{43}\u{52}\u{49}\u{50}\u{54}") (re.* re.allchar)))))
(check-sat)
(exit)
